benchmark_instances/dzn_benchmark_instances/benchmark_instance_10-2.dzn
% Input: sequence of points
seq_points = [|1,1
              |2,1
              |3,1
              |4,1
              |8,1
              |9,1
              |1,2
              |2,2
              |3,2
              |4,2
              |7,2
              |1,3
              |2,3
              |4,3
              |7,3
              |1,4
              |2,4
              |3,5
              |5,5
              |9,5
              |2,6
              |3,6
              |4,6
              |5,6
              |4,7
              |9,7
              |7,8
              |8,8
              |2,0
              |4,0
              |8,0
              |9,0
              |10,0
              |10,2
              |10,3
              |10,5
              |10,7
              |7,10
              |8,10
              |10,10
              |0,3
              |0,7
              |0,10
              |0,0
             |];

num_points = 44;
