benchmark_instances/lp_benchmark_instances/benchmark_instance_10-2.lp
% Input: sequence of points
point(1,1).
point(2,1).
point(3,1).
point(4,1).
point(8,1).
point(9,1).
point(1,2).
point(2,2).
point(3,2).
point(4,2).
point(7,2).
point(1,3).
point(2,3).
point(4,3).
point(7,3).
point(1,4).
point(2,4).
point(3,5).
point(5,5).
point(9,5).
point(2,6).
point(3,6).
point(4,6).
point(5,6).
point(4,7).
point(9,7).
point(7,8).
point(8,8).
point(2,0).
point(4,0).
point(8,0).
point(9,0).
point(10,0).
point(10,2).
point(10,3).
point(10,5).
point(10,7).
point(7,10).
point(8,10).
point(10,10).
point(0,3).
point(0,7).
point(0,10).
point(0,0).
